small
0 28 0.62
1 25 0.69
2 31 0.63
3 25 0.76
4 26 0.68
5 27 0.6
6 33 0.44
7 31 0.62
8 29 0.57
9 25 0.53
10 26 0.8
11 25 0.69
12 32 0.49
13 30 0.77
14 26 0.79
medium
0 297 68.24
1 279 25.01
2 259 59.13
3 272 31.52
4 292 31.28
5 262 87.29
6 292 74.75
7 279 40.26
8 268 50.28
9 280 55.11
10 272 83.28
11 299 62.53
12 259 38.69
13 251 78.38
14 250 56.57
large
0 1492 600.37
1 1439 600.93
2 1496 600.22
3 1435 600.86
4 1476 600.74
5 1492 600.73
6 1493 600.82
7 1470 600.03
8 1495 600.97
9 1517 600.21
10 1494 600.77
11 1495 600.61
12 1497 591.47
13 1439 600.32
14 1518 600.37
